1
0
100
0
1 1 1
128 53 384
 3.589697e+14
 3.642218e+14
 3.694739e+14
 3.748017e+14
 3.802064e+14
 3.856890e+14
 3.912506e+14
 3.968925e+14
 4.026157e+14
 4.084214e+14
 4.143108e+14
 4.202852e+14
 4.263457e+14
 4.324936e+14
 4.387302e+14
 4.450567e+14
 4.514744e+14
 4.579847e+14
 4.645889e+14
 4.712882e+14
 4.780842e+14
 4.849782e+14
 4.919716e+14
 4.990658e+14
 5.062624e+14
 5.135627e+14
 5.209683e+14
 5.284807e+14
 5.361014e+14
 5.438320e+14
 5.516740e+14
 5.596292e+14
 5.676990e+14
 5.758853e+14
 5.841896e+14
 5.926136e+14
 6.011591e+14
 6.098278e+14
 6.186215e+14
 6.275421e+14
 6.365912e+14
 6.457709e+14
 6.550829e+14
 6.645292e+14
 6.741118e+14
 6.838325e+14
 6.936934e+14
 7.036964e+14
 7.138438e+14
 7.241374e+14
 7.345795e+14
 7.451721e+14
 7.559175e+14
 7.668179e+14
 7.778754e+14
 7.890924e+14
 8.004711e+14
 8.120139e+14
 8.237232e+14
 8.356013e+14
 8.476507e+14
 8.598738e+14
 8.722732e+14
 8.848514e+14
 8.976110e+14
 9.105546e+14
 9.236848e+14
 9.370043e+14
 9.505160e+14
 9.642224e+14
 9.781265e+14
 9.922311e+14
 1.006539e+15
 1.021053e+15
 1.035777e+15
 1.050713e+15
 1.065864e+15
 1.081234e+15
 1.096826e+15
 1.112642e+15
 1.128686e+15
 1.144962e+15
 1.161472e+15
 1.178221e+15
 1.195211e+15
 1.212446e+15
 1.229929e+15
 1.247665e+15
 1.265656e+15
 1.283907e+15
 1.302421e+15
 1.321202e+15
 1.340253e+15
 1.359580e+15
 1.379185e+15
 1.399073e+15
 1.419248e+15
 1.439713e+15
 1.460474e+15
 1.481534e+15
 1.502898e+15
 1.524570e+15
 1.546554e+15
 1.568855e+15
 1.591478e+15
 1.614427e+15
 1.637707e+15
 1.661323e+15
 1.685279e+15
 1.709581e+15
 1.734233e+15
 1.759241e+15
 1.784609e+15
 1.810343e+15
 1.836449e+15
 1.862930e+15
 1.889794e+15
 1.917045e+15
 1.944689e+15
 1.972731e+15
 2.001178e+15
 2.030035e+15
 2.059308e+15
 2.089003e+15
 2.119127e+15
 2.149685e+15
 2.180683e+15
 2.212129e+15
 2.243574e+15
 8.6483836246e-01
 8.8689954884e-01
 9.0896073523e-01
 9.3102192161e-01
 9.5308310800e-01
 9.7514429438e-01
 9.9720548077e-01
 1.0192666672e+00
 1.0413278535e+00
 1.0633890399e+00
 1.0854502263e+00
 1.1075114127e+00
 1.1295725991e+00
 1.1516337855e+00
 1.1736949719e+00
 1.1957561582e+00
 1.2178173446e+00
 1.2398785310e+00
 1.2619397174e+00
 1.2840009038e+00
 1.3060620902e+00
 1.3281232766e+00
 1.3501844629e+00
 1.3722456493e+00
 1.3943068357e+00
 1.4163680221e+00
 1.4384292085e+00
 1.4604903949e+00
 1.4825515813e+00
 1.5046127676e+00
 1.5156433608e+00
 1.5266739540e+00
 1.5377045472e+00
 1.5432198438e+00
 1.5487351404e+00
 1.5542504370e+00
 1.5570080853e+00
 1.5597657336e+00
 1.5625233819e+00
 1.5639022060e+00
 1.5652810302e+00
 1.5666598543e+00
 1.5673492664e+00
 1.5680386785e+00
 1.5687280906e+00
 1.5690727966e+00
 1.5694175026e+00
 1.5697622087e+00
 1.5699345617e+00
 1.5701069147e+00
 1.5702792677e+00
 1.5704516208e+00
 1.5706239738e+00
 1.5707963268e+00
 0.000000e+00
 1.636246e-02
 3.272492e-02
 4.908739e-02
 6.544985e-02
 8.181231e-02
 9.817477e-02
 1.145372e-01
 1.308997e-01
 1.472622e-01
 1.636246e-01
 1.799871e-01
 1.963495e-01
 2.127120e-01
 2.290745e-01
 2.454369e-01
 2.617994e-01
 2.781618e-01
 2.945243e-01
 3.108868e-01
 3.272492e-01
 3.436117e-01
 3.599742e-01
 3.763366e-01
 3.926991e-01
 4.090615e-01
 4.254240e-01
 4.417865e-01
 4.581489e-01
 4.745114e-01
 4.908739e-01
 5.072363e-01
 5.235988e-01
 5.399612e-01
 5.563237e-01
 5.726862e-01
 5.890486e-01
 6.054111e-01
 6.217735e-01
 6.381360e-01
 6.544985e-01
 6.708609e-01
 6.872234e-01
 7.035859e-01
 7.199483e-01
 7.363108e-01
 7.526732e-01
 7.690357e-01
 7.853982e-01
 8.017606e-01
 8.181231e-01
 8.344855e-01
 8.508480e-01
 8.672105e-01
 8.835729e-01
 8.999354e-01
 9.162979e-01
 9.326603e-01
 9.490228e-01
 9.653852e-01
 9.817477e-01
 9.981102e-01
 1.014473e+00
 1.030835e+00
 1.047198e+00
 1.063560e+00
 1.079922e+00
 1.096285e+00
 1.112647e+00
 1.129010e+00
 1.145372e+00
 1.161735e+00
 1.178097e+00
 1.194460e+00
 1.210822e+00
 1.227185e+00
 1.243547e+00
 1.259910e+00
 1.276272e+00
 1.292634e+00
 1.308997e+00
 1.325359e+00
 1.341722e+00
 1.358084e+00
 1.374447e+00
 1.390809e+00
 1.407172e+00
 1.423534e+00
 1.439897e+00
 1.456259e+00
 1.472622e+00
 1.488984e+00
 1.505346e+00
 1.521709e+00
 1.538071e+00
 1.554434e+00
 1.570796e+00
 1.587159e+00
 1.603521e+00
 1.619884e+00
 1.636246e+00
 1.652609e+00
 1.668971e+00
 1.685334e+00
 1.701696e+00
 1.718058e+00
 1.734421e+00
 1.750783e+00
 1.767146e+00
 1.783508e+00
 1.799871e+00
 1.816233e+00
 1.832596e+00
 1.848958e+00
 1.865321e+00
 1.881683e+00
 1.898046e+00
 1.914408e+00
 1.930770e+00
 1.947133e+00
 1.963495e+00
 1.979858e+00
 1.996220e+00
 2.012583e+00
 2.028945e+00
 2.045308e+00
 2.061670e+00
 2.078033e+00
 2.094395e+00
 2.110758e+00
 2.127120e+00
 2.143482e+00
 2.159845e+00
 2.176207e+00
 2.192570e+00
 2.208932e+00
 2.225295e+00
 2.241657e+00
 2.258020e+00
 2.274382e+00
 2.290745e+00
 2.307107e+00
 2.323470e+00
 2.339832e+00
 2.356194e+00
 2.372557e+00
 2.388919e+00
 2.405282e+00
 2.421644e+00
 2.438007e+00
 2.454369e+00
 2.470732e+00
 2.487094e+00
 2.503457e+00
 2.519819e+00
 2.536182e+00
 2.552544e+00
 2.568906e+00
 2.585269e+00
 2.601631e+00
 2.617994e+00
 2.634356e+00
 2.650719e+00
 2.667081e+00
 2.683444e+00
 2.699806e+00
 2.716169e+00
 2.732531e+00
 2.748894e+00
 2.765256e+00
 2.781618e+00
 2.797981e+00
 2.814343e+00
 2.830706e+00
 2.847068e+00
 2.863431e+00
 2.879793e+00
 2.896156e+00
 2.912518e+00
 2.928881e+00
 2.945243e+00
 2.961606e+00
 2.977968e+00
 2.994330e+00
 3.010693e+00
 3.027055e+00
 3.043418e+00
 3.059780e+00
 3.076143e+00
 3.092505e+00
 3.108868e+00
 3.125230e+00
 3.141593e+00
 3.157955e+00
 3.174318e+00
 3.190680e+00
 3.207043e+00
 3.223405e+00
 3.239767e+00
 3.256130e+00
 3.272492e+00
 3.288855e+00
 3.305217e+00
 3.321580e+00
 3.337942e+00
 3.354305e+00
 3.370667e+00
 3.387030e+00
 3.403392e+00
 3.419755e+00
 3.436117e+00
 3.452479e+00
 3.468842e+00
 3.485204e+00
 3.501567e+00
 3.517929e+00
 3.534292e+00
 3.550654e+00
 3.567017e+00
 3.583379e+00
 3.599742e+00
 3.616104e+00
 3.632467e+00
 3.648829e+00
 3.665191e+00
 3.681554e+00
 3.697916e+00
 3.714279e+00
 3.730641e+00
 3.747004e+00
 3.763366e+00
 3.779729e+00
 3.796091e+00
 3.812454e+00
 3.828816e+00
 3.845179e+00
 3.861541e+00
 3.877903e+00
 3.894266e+00
 3.910628e+00
 3.926991e+00
 3.943353e+00
 3.959716e+00
 3.976078e+00
 3.992441e+00
 4.008803e+00
 4.025166e+00
 4.041528e+00
 4.057891e+00
 4.074253e+00
 4.090615e+00
 4.106978e+00
 4.123340e+00
 4.139703e+00
 4.156065e+00
 4.172428e+00
 4.188790e+00
 4.205153e+00
 4.221515e+00
 4.237878e+00
 4.254240e+00
 4.270603e+00
 4.286965e+00
 4.303327e+00
 4.319690e+00
 4.336052e+00
 4.352415e+00
 4.368777e+00
 4.385140e+00
 4.401502e+00
 4.417865e+00
 4.434227e+00
 4.450590e+00
 4.466952e+00
 4.483315e+00
 4.499677e+00
 4.516039e+00
 4.532402e+00
 4.548764e+00
 4.565127e+00
 4.581489e+00
 4.597852e+00
 4.614214e+00
 4.630577e+00
 4.646939e+00
 4.663302e+00
 4.679664e+00
 4.696027e+00
 4.712389e+00
 4.728751e+00
 4.745114e+00
 4.761476e+00
 4.777839e+00
 4.794201e+00
 4.810564e+00
 4.826926e+00
 4.843289e+00
 4.859651e+00
 4.876014e+00
 4.892376e+00
 4.908739e+00
 4.925101e+00
 4.941463e+00
 4.957826e+00
 4.974188e+00
 4.990551e+00
 5.006913e+00
 5.023276e+00
 5.039638e+00
 5.056001e+00
 5.072363e+00
 5.088726e+00
 5.105088e+00
 5.121451e+00
 5.137813e+00
 5.154175e+00
 5.170538e+00
 5.186900e+00
 5.203263e+00
 5.219625e+00
 5.235988e+00
 5.252350e+00
 5.268713e+00
 5.285075e+00
 5.301438e+00
 5.317800e+00
 5.334163e+00
 5.350525e+00
 5.366887e+00
 5.383250e+00
 5.399612e+00
 5.415975e+00
 5.432337e+00
 5.448700e+00
 5.465062e+00
 5.481425e+00
 5.497787e+00
 5.514150e+00
 5.530512e+00
 5.546875e+00
 5.563237e+00
 5.579599e+00
 5.595962e+00
 5.612324e+00
 5.628687e+00
 5.645049e+00
 5.661412e+00
 5.677774e+00
 5.694137e+00
 5.710499e+00
 5.726862e+00
 5.743224e+00
 5.759587e+00
 5.775949e+00
 5.792311e+00
 5.808674e+00
 5.825036e+00
 5.841399e+00
 5.857761e+00
 5.874124e+00
 5.890486e+00
 5.906849e+00
 5.923211e+00
 5.939574e+00
 5.955936e+00
 5.972299e+00
 5.988661e+00
 6.005023e+00
 6.021386e+00
 6.037748e+00
 6.054111e+00
 6.070473e+00
 6.086836e+00
 6.103198e+00
 6.119561e+00
 6.135923e+00
 6.152286e+00
 6.168648e+00
 6.185011e+00
 6.201373e+00
 6.217735e+00
 6.234098e+00
 6.250460e+00
 6.266823e+00
 6.283185e+00
